148761 248106 92056 181106 240184 238465 248436 240106 181261 238381 232754 
218307 92056 153679 191238 191297 238465 92179 238381 119184 232754 
148761 122710 248285 223210 130745 238465 248436 217595 223285 217710 47556 238381 232754 
218307 92056 153679 191238 191297 238465 92179 238381 119184 232754 
218307 92056 153679 191238 191297 238465 92179 238381 119184 232754 
218307 92056 153679 191238 191297 238465 92179 238381 119184 232754 
218307 92056 153679 191238 191297 238465 92179 238381 119184 232754 
218307 92056 153679 191238 191297 238465 92179 238381 119184 232754 
148761 122710 248285 223210 130745 238465 248436 217595 223285 217710 47556 238381 232754 
218307 92056 153679 191238 191297 238465 92179 238381 119184 232754 
